(set-info :smt-lib-version 2.6)
(set-logic LRA)
(set-info :source |
   Monniaux, David; Quantifier Elimination by Lazy Model Enumeration, CAV 2010
|)
(set-info :category "random")
; ./Mjollnir_examples/B4/formula_018.m
(set-info :status unsat)
(assert
 (exists ((|v11:0| Real) )(exists ((|v10:1| Real) )(exists ((|v9:2| Real) )(exists ((|v8:3| Real) )(forall ((|v7:4| Real) )(forall ((|v6:5| Real) )(forall ((|v5:6| Real) )(forall ((|v4:7| Real) )(exists ((|v3:8| Real) )(exists ((|v2:9| Real) )(exists ((|v1:10| Real) )(exists ((|v0:11| Real) )(let ((?x106 14))
(let ((?x607 (+ (+ (* (- 11) |v0:11|) (* 11 |v8:3|)) (* (- 3) |v9:2|))))
(let ((?x162 5))
(let ((?x53 3))
(let ((?x373 (* ?x53 |v10:1|)))
(let ((?x600 (+ (+ (* (- 4) |v0:11|) (* (- 15) |v10:1|)) (* 13 |v10:1|))))
(let (($x611 (and (<= (+ ?x600 ?x373) ?x162) (<= (+ ?x607 (* 13 |v3:8|)) ?x106))))
(let ((?x25 (- 11)))
(let ((?x65 20))
(let ((?x66 (* ?x65 |v11:0|)))
(let ((?x593 (+ (+ (* (- 6) |v7:4|) (* 0 |v0:11|)) (* 10 |v8:3|))))
(let ((?x587 (+ (+ (+ (* ?x25 |v8:3|) |v2:9|) (* (- 10) |v10:1|)) (* 6 |v5:6|))))
(let ((?x140 4))
(let ((?x10 15))
(let ((?x11 (* ?x10 |v5:6|)))
(let ((?x22 (- 15)))
(let ((?x279 (* ?x22 |v0:11|)))
(let ((?x579 (+ (+ (+ (* (- 14) |v2:9|) (* 13 |v11:0|)) ?x279) ?x11)))
(let ((?x572 (+ (+ (* (- 13) |v0:11|) (* 17 |v0:11|)) (* ?x10 |v7:4|))))
(let ((?x187 (- 13)))
(let ((?x563 (+ (+ (* (- 4) |v5:6|) (* (- 1) |v5:6|)) (* (- 12) |v7:4|))))
(let ((?x73 (- 12)))
(let ((?x556 (+ (+ (* ?x22 |v1:10|) (* (- 20) |v7:4|)) (* 8 |v3:8|))))
(let (($x567 (and (<= (+ ?x556 (* (- 18) |v3:8|)) ?x73) (<= (+ ?x563 (* ?x140 |v10:1|)) ?x187))))
(let (($x582 (and $x567 (and (<= (+ ?x572 (* 7 |v2:9|)) ?x53) (<= ?x579 ?x140)))))
(let ((?x218 19))
(let ((?x545 (+ (+ (* 2 |v10:1|) (* 10 |v5:6|)) (* 12 |v3:8|))))
(let ((?x538 (+ (+ (* (- 4) |v11:0|) (* 11 |v6:5|)) (* 2 |v2:9|))))
(let (($x549 (and (<= (+ ?x538 (* 10 |v1:10|)) ?x140) (<= (+ ?x545 (* (- 6) |v5:6|)) ?x218))))
(let ((?x147 0))
(let ((?x529 (+ (+ (* ?x65 |v3:8|) (* (- 4) |v10:1|)) (* 7 |v3:8|))))
(let ((?x522 (+ (+ (* ?x140 |v6:5|) (* (- 2) |v3:8|)) (* 6 |v11:0|))))
(let (($x533 (or (<= (+ ?x522 (* 16 |v4:7|)) ?x10) (<= (+ ?x529 (* ?x10 |v1:10|)) ?x147))))
(let ((?x90 7))
(let ((?x515 (+ (+ (+ (* ?x10 |v2:9|) (* (- 1) |v5:6|)) (* ?x53 |v2:9|)) (* (- 16) |v5:6|))))
(let ((?x143 2))
(let ((?x506 (+ (+ (* 12 |v11:0|) (* (- 6) |v3:8|)) (* (- 16) |v1:10|))))
(let ((?x134 (- 1)))
(let ((?x122 (* ?x22 |v3:8|)))
(let ((?x500 (+ (+ (+ (* (- 10) |v8:3|) (* (- 9) |v10:1|)) ?x122) (* 9 |v5:6|))))
(let ((?x228 (- 16)))
(let ((?x159 (* ?x22 |v8:3|)))
(let (($x496 (<= (+ (+ (+ (* ?x25 |v5:6|) |v10:1|) (* (- 10) |v5:6|)) ?x159) ?x228)))
(let (($x518 (and (and $x496 (<= ?x500 ?x134)) (or (<= (+ ?x506 (* ?x147 |v1:10|)) ?x143) (<= ?x515 ?x90)))))
(let (($x614 (and (and $x518 (and $x533 $x549)) (and $x582 (and (and (<= ?x587 ?x162) (<= (+ ?x593 ?x66) ?x25)) $x611)))))
(let ((?x204 6))
(let ((?x486 (+ (+ (+ (* ?x53 |v1:10|) (* (- 19) |v4:7|)) (* ?x10 |v9:2|)) (* (- 5) |v6:5|))))
(let ((?x233 (- 3)))
(let ((?x480 (+ (+ (+ (* ?x73 |v4:7|) (* ?x10 |v3:8|)) (* (- 4) |v7:4|)) (* ?x143 |v0:11|))))
(let ((?x469 (+ (+ (* (- 8) |v6:5|) (* 12 |v11:0|)) (* ?x204 |v8:3|))))
(let ((?x210 (- 8)))
(let ((?x280 (* ?x218 |v7:4|)))
(let ((?x463 (+ (+ (+ (* 9 |v10:1|) (* 10 |v7:4|)) ?x280) (* ?x210 |v10:1|))))
(let (($x489 (and (and (<= ?x463 ?x210) (<= (+ ?x469 (* (- 19) |v8:3|)) ?x106)) (and (<= ?x480 ?x233) (<= ?x486 ?x204)))))
(let ((?x198 (- 14)))
(let ((?x455 (+ (+ (+ (* ?x106 |v4:7|) (* 16 |v10:1|)) (* ?x65 |v5:6|)) (* 17 |v2:9|))))
(let ((?x76 16))
(let ((?x448 (+ (+ (+ (* ?x140 |v6:5|) (* ?x65 |v1:10|)) (* (- 2) |v5:6|)) (* ?x210 |v0:11|))))
(let ((?x60 (- 5)))
(let ((?x440 (+ (+ (+ (* ?x73 |v10:1|) (* ?x25 |v8:3|)) (* (- 2) |v10:1|)) (* ?x73 |v2:9|))))
(let ((?x430 (+ (+ (* (- 17) |v9:2|) (* (- 18) |v2:9|)) (* ?x53 |v4:7|))))
(let (($x458 (and (or (<= (+ ?x430 (* ?x90 |v0:11|)) ?x73) (<= ?x440 ?x60)) (or (<= ?x448 ?x76) (<= ?x455 ?x198)))))
(let ((?x421 (+ (+ (+ (* (- 20) |v5:6|) (* ?x218 |v0:11|)) (* ?x228 |v11:0|)) (* 12 |v6:5|))))
(let ((?x48 (- 10)))
(let ((?x125 (* ?x48 |v8:3|)))
(let ((?x412 (+ (+ (* (- 17) |v11:0|) (* ?x143 |v7:4|)) (* 18 |v8:3|))))
(let ((?x151 11))
(let ((?x404 (+ (+ (* 8 |v6:5|) (* ?x228 |v3:8|)) (* (- 7) |v4:7|))))
(let ((?x69 10))
(let ((?x395 (* ?x69 |v5:6|)))
(let (($x397 (<= (+ (+ (+ (* ?x76 |v3:8|) (* ?x65 |v3:8|)) (* ?x65 |v10:1|)) ?x395) ?x140)))
(let (($x424 (and (and $x397 (<= (+ ?x404 (* ?x147 |v9:2|)) ?x151)) (and (<= (+ ?x412 ?x125) ?x187) (<= ?x421 ?x140)))))
(let (($x387 (<= (+ (+ (+ ?x122 (* ?x134 |v1:10|)) (* ?x147 |v4:7|)) (* ?x53 |v8:3|)) ?x228)))
(let ((?x101 9))
(let ((?x63 (* ?x22 |v11:0|)))
(let (($x382 (<= (+ (+ (+ (* ?x151 |v10:1|) (* ?x53 |v0:11|)) (* ?x48 |v7:4|)) ?x63) ?x101)))
(let (($x375 (<= (+ (+ (+ (* 13 |v0:11|) |v6:5|) (* ?x25 |v7:4|)) ?x373) ?x147)))
(let ((?x256 (* ?x140 |v4:7|)))
(let (($x369 (<= (+ (+ (+ (* ?x10 |v8:3|) ?x11) (* (- 19) |v5:6|)) ?x256) ?x48)))
(let (($x491 (and (and (and (and $x369 $x375) (and $x382 $x387)) $x424) (and $x458 $x489))))
(let ((?x357 (+ (+ (+ (* ?x48 |v9:2|) (* ?x69 |v11:0|)) (* (- 18) |v5:6|)) (* (- 17) |v5:6|))))
(let ((?x178 (* ?x60 |v8:3|)))
(let ((?x117 (- 9)))
(let ((?x118 (* ?x117 |v0:11|)))
(let (($x350 (<= (+ (+ (+ (* (- 20) |v9:2|) (* ?x101 |v1:10|)) ?x118) ?x178) ?x25)))
(let ((?x343 (+ (+ (+ (* ?x151 |v10:1|) (* ?x151 |v1:10|)) (* ?x69 |v0:11|)) (* ?x151 |v5:6|))))
(let ((?x332 (* ?x187 |v10:1|)))
(let (($x345 (or (<= (+ (+ (+ (* ?x228 |v0:11|) ?x332) (* ?x147 |v5:6|)) ?x332) ?x101) (<= ?x343 ?x143))))
(let ((?x39 17))
(let ((?x327 (+ (+ (+ (* (- 6) |v10:1|) (* ?x106 |v5:6|)) (* ?x106 |v1:10|)) (* 13 |v9:2|))))
(let ((?x94 (- 19)))
(let (($x321 (<= (+ (+ (+ (* ?x151 |v1:10|) |v10:1|) ?x279) (* (- 6) |v6:5|)) ?x94)))
(let ((?x314 (+ (+ (+ (* ?x233 |v1:10|) (* ?x73 |v8:3|)) (* ?x218 |v4:7|)) (* ?x106 |v11:0|))))
(let ((?x188 (* ?x187 |v5:6|)))
(let ((?x30 (- 2)))
(let ((?x304 (* ?x30 |v5:6|)))
(let ((?x306 (+ (+ (+ (* (- 7) |v10:1|) (* (- 17) |v3:8|)) ?x304) ?x188)))
(let (($x361 (and (and (or (<= ?x306 ?x53) (<= ?x314 ?x94)) (and $x321 (<= ?x327 ?x39))) (and $x345 (and $x350 (<= ?x357 ?x162))))))
(let ((?x294 (+ (+ (+ (* ?x53 |v1:10|) (* ?x143 |v7:4|)) (* ?x162 |v10:1|)) (* ?x187 |v4:7|))))
(let ((?x286 12))
(let (($x296 (and (<= (+ (+ (+ ?x279 ?x280) (* ?x140 |v11:0|)) (* ?x228 |v8:3|)) ?x286) (<= ?x294 ?x218))))
(let ((?x275 (+ (+ (+ (* ?x134 |v2:9|) (* ?x65 |v6:5|)) (* ?x25 |v3:8|)) (* ?x162 |v11:0|))))
(let ((?x170 13))
(let ((?x267 (* ?x170 |v11:0|)))
(let (($x269 (<= (+ (+ (+ (* ?x117 |v5:6|) (* ?x233 |v10:1|)) (* ?x65 |v9:2|)) ?x267) ?x187)))
(let ((?x110 (- 4)))
(let ((?x259 (+ (+ (+ (* ?x147 |v2:9|) (* ?x117 |v10:1|)) ?x256) (* 18 |v10:1|))))
(let ((?x85 (- 18)))
(let ((?x251 (+ (+ (+ (* ?x117 |v9:2|) (* ?x48 |v5:6|)) (* 18 |v6:5|)) (* ?x134 |v7:4|))))
(let ((?x240 (+ (+ (+ (* ?x218 |v1:10|) (* ?x218 |v1:10|)) (* ?x117 |v1:10|)) (* ?x90 |v5:6|))))
(let (($x234 (<= (+ (+ (+ ?x11 (* ?x101 |v4:7|)) (* ?x228 |v9:2|)) (* ?x134 |v10:1|)) ?x233)))
(let (($x298 (and (and (and $x234 (<= ?x240 ?x204)) (and (<= ?x251 ?x85) (<= ?x259 ?x110))) (and (and $x269 (<= ?x275 ?x94)) $x296))))
(let ((?x217 (+ (+ (+ (* ?x210 |v8:3|) (* ?x22 |v10:1|)) (* ?x65 |v9:2|)) (* ?x85 |v11:0|))))
(let ((?x206 (+ (+ (+ (* ?x25 |v9:2|) (* ?x198 |v3:8|)) (* ?x65 |v8:3|)) (* ?x204 |v2:9|))))
(let ((?x14 (- 6)))
(let ((?x121 (* ?x14 |v4:7|)))
(let (($x185 (<= (+ (+ (+ ?x178 (* ?x170 |v2:9|)) (* ?x134 |v5:6|)) (* ?x151 |v9:2|)) ?x25)))
(let (($x195 (and $x185 (<= (+ (+ (+ ?x188 (* ?x170 |v0:11|)) (* ?x187 |v3:8|)) ?x121) ?x60))))
(let (($x175 (<= (+ (+ (+ (* ?x10 |v6:5|) (* ?x170 |v6:5|)) |v11:0|) (* ?x14 |v6:5|)) ?x30)))
(let ((?x166 (+ (+ (+ (* (- 7) |v6:5|) ?x159) (* ?x162 |v8:3|)) (* ?x143 |v6:5|))))
(let ((?x154 (* ?x106 |v1:10|)))
(let (($x156 (<= (+ (+ (+ (* ?x94 |v1:10|) (* ?x147 |v10:1|)) (* ?x151 |v7:4|)) ?x154) ?x48)))
(let ((?x142 (+ (+ (+ (* ?x76 |v10:1|) (* ?x134 |v1:10|)) (* ?x101 |v8:3|)) (* ?x140 |v9:2|))))
(let (($x222 (and (and (and (<= ?x142 ?x143) $x156) (and (<= ?x166 ?x147) $x175)) (and $x195 (and (<= ?x206 ?x53) (<= ?x217 ?x218))))))
(let (($x128 (and (<= (+ (+ (+ (* ?x110 |v8:3|) (* ?x90 |v11:0|)) |v11:0|) ?x118) ?x10) (<= (+ (+ (+ ?x121 ?x122) (* ?x94 |v4:7|)) ?x125) ?x106))))
(let ((?x104 (* ?x65 |v6:5|)))
(let (($x107 (<= (+ (+ (+ (* ?x94 |v4:7|) (* ?x39 |v3:8|)) (* ?x101 |v10:1|)) ?x104) ?x106)))
(let ((?x89 (+ (+ (+ (* ?x60 |v5:6|) (* ?x53 |v8:3|)) (* ?x85 |v1:10|)) (* ?x14 |v11:0|))))
(let ((?x57 (- 20)))
(let ((?x58 (* ?x57 |v9:2|)))
(let (($x78 (and (<= (+ (+ (+ (* ?x48 |v4:7|) |v2:9|) (* ?x53 |v7:4|)) ?x58) ?x60) (<= (+ (+ (+ ?x63 ?x66) (* ?x69 |v9:2|)) (* ?x73 |v9:2|)) ?x76))))
(let ((?x42 (- 7)))
(let ((?x41 (+ (+ (+ (* ?x30 |v2:9|) (* ?x30 |v6:5|)) (* ?x10 |v11:0|)) (* ?x39 |v8:3|))))
(let (($x26 (<= (+ (+ (+ ?x11 (* ?x14 |v1:10|)) (* ?x14 |v6:5|)) (* ?x22 |v9:2|)) ?x25)))
(let (($x130 (and (and (and $x26 (<= ?x41 ?x42)) $x78) (and (and (<= ?x89 ?x90) $x107) $x128))))
(and (and (and $x130 $x222) (and $x298 $x361)) (and $x491 $x614))))))))))))))))))))))))))))))))))))))))))))))))))))))))))))))))))))))))))))))))))))))))))))))))))))))))))))))))))))))))))))))))))))))))))
)
)
)
)
)
)
)
)
)
)
)
)
(check-sat)
(exit)

